c description: Graph 4-Colorability of graph: 
c generator: CNFgen (0.9.0)
c copyright: (C) 2012-2020 Massimo Lauria <massimo.lauria@uniroma1.it>
c url: https://massimolauria.net/cnfgen
c
p cnf 40 190
1 2 3 4 0
-1 -2 0
-1 -3 0
-1 -4 0
-2 -3 0
-2 -4 0
-3 -4 0
5 6 7 8 0
-5 -6 0
-5 -7 0
-5 -8 0
-6 -7 0
-6 -8 0
-7 -8 0
9 10 11 12 0
-9 -10 0
-9 -11 0
-9 -12 0
-10 -11 0
-10 -12 0
-11 -12 0
13 14 15 16 0
-13 -14 0
-13 -15 0
-13 -16 0
-14 -15 0
-14 -16 0
-15 -16 0
17 18 19 20 0
-17 -18 0
-17 -19 0
-17 -20 0
-18 -19 0
-18 -20 0
-19 -20 0
21 22 23 24 0
-21 -22 0
-21 -23 0
-21 -24 0
-22 -23 0
-22 -24 0
-23 -24 0
25 26 27 28 0
-25 -26 0
-25 -27 0
-25 -28 0
-26 -27 0
-26 -28 0
-27 -28 0
29 30 31 32 0
-29 -30 0
-29 -31 0
-29 -32 0
-30 -31 0
-30 -32 0
-31 -32 0
33 34 35 36 0
-33 -34 0
-33 -35 0
-33 -36 0
-34 -35 0
-34 -36 0
-35 -36 0
37 38 39 40 0
-37 -38 0
-37 -39 0
-37 -40 0
-38 -39 0
-38 -40 0
-39 -40 0
-1 -17 0
-2 -18 0
-3 -19 0
-4 -20 0
-1 -21 0
-2 -22 0
-3 -23 0
-4 -24 0
-1 -29 0
-2 -30 0
-3 -31 0
-4 -32 0
-1 -33 0
-2 -34 0
-3 -35 0
-4 -36 0
-5 -9 0
-6 -10 0
-7 -11 0
-8 -12 0
-5 -13 0
-6 -14 0
-7 -15 0
-8 -16 0
-5 -17 0
-6 -18 0
-7 -19 0
-8 -20 0
-5 -29 0
-6 -30 0
-7 -31 0
-8 -32 0
-5 -33 0
-6 -34 0
-7 -35 0
-8 -36 0
-5 -37 0
-6 -38 0
-7 -39 0
-8 -40 0
-9 -17 0
-10 -18 0
-11 -19 0
-12 -20 0
-9 -21 0
-10 -22 0
-11 -23 0
-12 -24 0
-9 -25 0
-10 -26 0
-11 -27 0
-12 -28 0
-9 -29 0
-10 -30 0
-11 -31 0
-12 -32 0
-9 -37 0
-10 -38 0
-11 -39 0
-12 -40 0
-13 -17 0
-14 -18 0
-15 -19 0
-16 -20 0
-13 -21 0
-14 -22 0
-15 -23 0
-16 -24 0
-13 -25 0
-14 -26 0
-15 -27 0
-16 -28 0
-13 -29 0
-14 -30 0
-15 -31 0
-16 -32 0
-13 -37 0
-14 -38 0
-15 -39 0
-16 -40 0
-17 -25 0
-18 -26 0
-19 -27 0
-20 -28 0
-17 -29 0
-18 -30 0
-19 -31 0
-20 -32 0
-17 -33 0
-18 -34 0
-19 -35 0
-20 -36 0
-17 -37 0
-18 -38 0
-19 -39 0
-20 -40 0
-21 -25 0
-22 -26 0
-23 -27 0
-24 -28 0
-21 -33 0
-22 -34 0
-23 -35 0
-24 -36 0
-21 -37 0
-22 -38 0
-23 -39 0
-24 -40 0
-25 -29 0
-26 -30 0
-27 -31 0
-28 -32 0
-29 -33 0
-30 -34 0
-31 -35 0
-32 -36 0
-29 -37 0
-30 -38 0
-31 -39 0
-32 -40 0